W=6;
H=4;

MAX_TIME=24;
MAX_TRACKS=7;

TARGET=(1,6);

TRAINS=[(4,5,LEFT)];

INIT_POS=[
(1,1,CORNER_DR),
(1,2,STRAIGHT_RL),
(1,3,STRAIGHT_RL),
(1,4,STRAIGHT_RL),
(1,5,STRAIGHT_RL),
(1,6,STRAIGHT_RL),
(2,1,ESWITCH_T_D_R),
(2,3,CORNER_DL),
(3,1,STRAIGHT_TD),
(4,1,CORNER_TR),
(4,2,STRAIGHT_RL),
(4,4,STRAIGHT_RL),
(4,5,STRAIGHT_RL),
];
TUNNEL_PAIRS=[];

GATES=[
(1,2,3,false),
(1,3,2,false),
(1,4,1,true),
];
ACTIVATIONS=[
(2,3,1),
(3,1,3),
(4,2,2),
];

DSWITCHES=[];
STATIONS=[];
